(set-logic ALL)
(declare-const num_VAR Int)
(declare-const base_VAR Int)
(assert (not (< num_VAR 0)))
(assert (not (= base_VAR 0)))
(assert (not (= base_VAR 1)))
(assert (not (> base_VAR 36)))
(assert (not (>= base_VAR 11)))
(assert (not (not (= base_VAR 0))))
(check-sat)
(get-value (num_VAR))
(get-value (base_VAR))
